(set-logic ALL)
(set-option :produce-models true)
(set-option :parse-transducers true)
(define-fun-rec toLower ((x String) (y String)) Bool
   (or (and (= x "") (= y ""))
       (and (not (= x "")) (not (= y ""))
           (= (char.code (str.head y))
               (ite (and (<= 65 (char.code (str.head x)))
                       (<= (char.code (str.head x)) 90))
                   (+ (char.code (str.head x)) 32)
                   (char.code (str.head x))))
           (toLower (str.tail x) (str.tail y))))
)
(declare-fun sym205 () String)
(declare-fun sym605 () String)
(declare-fun sym649 () String)
(declare-fun sym729 () String)
(declare-fun sym362 () String)
(declare-fun sym443 () String)
(declare-fun sym685 () String)
(declare-fun sym289 () String)
(declare-fun sym323 () String)
(declare-fun sym489 () String)
(declare-fun sym523 () String)
(declare-fun sym160 () String)
(declare-fun sym337 () String)
(declare-fun sym659 () String)
(declare-fun sym615 () String)
(declare-fun sym739 () String)
(declare-fun sym571 () String)
(declare-fun sym175 () String)
(declare-fun sym254 () String)
(declare-fun sym695 () String)
(declare-fun sym453 () String)
(declare-fun sym135 () String)
(declare-fun sym377 () String)
(declare-fun sym499 () String)
(declare-fun sym533 () String)
(declare-fun sym413 () String)
(declare-fun sym215 () String)
(declare-fun sym20 () String)
(declare-fun sym469 () String)
(declare-fun sym705 () String)
(declare-fun sym749 () String)
(declare-fun sym629 () String)
(declare-fun sym509 () String)
(declare-fun sym264 () String)
(declare-fun sym387 () String)
(declare-fun sym543 () String)
(declare-fun sym225 () String)
(declare-fun sym423 () String)
(declare-fun sym303 () String)
(declare-fun sym185 () String)
(declare-fun sym581 () String)
(declare-fun sym557 () String)
(declare-fun sym239 () String)
(declare-fun sym715 () String)
(declare-fun sym639 () String)
(declare-fun sym352 () String)
(declare-fun sym595 () String)
(declare-fun sym397 () String)
(declare-fun sym113 () String)
(declare-fun sym279 () String)
(declare-fun sym675 () String)
(declare-fun sym433 () String)
(declare-fun sym313 () String)
(declare-fun sym479 () String)
(declare-fun sym150 () String)
(declare-fun sym195 () String)
(define-fun Alphabet () RegLan 
	(re.* (re.union (str.to_re "A") (str.to_re "B") (str.to_re "C") (str.to_re "D") (str.to_re "E") (str.to_re "F") (str.to_re "G") (str.to_re "H") (str.to_re "I") (str.to_re "J") (str.to_re "K") (str.to_re "L") (str.to_re "M") (str.to_re "N") (str.to_re "O") (str.to_re "P") (str.to_re "Q") (str.to_re "R") (str.to_re "S") (str.to_re "T") (str.to_re "U") (str.to_re "V") (str.to_re "W") (str.to_re "X") (str.to_re "Y") (str.to_re "Z") (str.to_re "a") (str.to_re "b") (str.to_re "c") (str.to_re "d") (str.to_re "e") (str.to_re "f") (str.to_re "g") (str.to_re "h") (str.to_re "i") (str.to_re "j") (str.to_re "k") (str.to_re "l") (str.to_re "m") (str.to_re "n") (str.to_re "o") (str.to_re "p") (str.to_re "q") (str.to_re "r") (str.to_re "s") (str.to_re "t") (str.to_re "u") (str.to_re "v") (str.to_re "w") (str.to_re "x") (str.to_re "y") (str.to_re "z") ))
)
(declare-fun L40  () String)
(assert (toLower sym557  L40 ))
(declare-fun L2  () String)
(assert (toLower sym523  L2 ))
(declare-fun L44  () String)
(assert (toLower sym639  L44 ))
(declare-fun L6  () String)
(assert (toLower sym543  L6 ))
(declare-fun L32  () String)
(assert (toLower sym499  L32 ))
(declare-fun L20  () String)
(assert (toLower sym160  L20 ))
(declare-fun L52  () String)
(assert (toLower sym20  L52 ))
(declare-fun L48  () String)
(assert (toLower sym605  L48 ))
(declare-fun L36  () String)
(assert (toLower sym739  L36 ))
(declare-fun L24  () String)
(assert (toLower sym595  L24 ))
(declare-fun L12  () String)
(assert (toLower sym337  L12 ))
(declare-fun L28  () String)
(assert (toLower sym135  L28 ))
(declare-fun L16  () String)
(assert (toLower sym695  L16 ))
(declare-fun L73  () String)
(assert (toLower sym323  L73 ))
(declare-fun L61  () String)
(assert (toLower sym715  L61 ))
(declare-fun L1  () String)
(assert (toLower "name"  L1 ))
(declare-fun L93  () String)
(assert (toLower sym352  L93 ))
(declare-fun L81  () String)
(assert (toLower sym195  L81 ))
(declare-fun L77  () String)
(assert (toLower sym362  L77 ))
(declare-fun L33  () String)
(assert (toLower "length"  L33 ))
(declare-fun L108  () String)
(assert (toLower sym175  L108 ))
(declare-fun L65  () String)
(assert (toLower sym443  L65 ))
(declare-fun L5  () String)
(assert (toLower "database"  L5 ))
(declare-fun L97  () String)
(assert (toLower sym675  L97 ))
(declare-fun L53  () String)
(assert (toLower sym581  L53 ))
(declare-fun L85  () String)
(assert (toLower sym215  L85 ))
(declare-fun L104  () String)
(assert (toLower sym397  L104 ))
(declare-fun L69  () String)
(assert (toLower sym685  L69 ))
(declare-fun L9  () String)
(assert (toLower "type"  L9 ))
(declare-fun L57  () String)
(assert (toLower sym303  L57 ))
(declare-fun L89  () String)
(assert (toLower sym729  L89 ))
(declare-fun L0  () String)
(assert (toLower sym239  L0 ))
(declare-fun L50  () String)
(assert (toLower sym705  L50 ))
(declare-fun L4  () String)
(assert (toLower sym113  L4 ))
(declare-fun L22  () String)
(assert (toLower sym453  L22 ))
(declare-fun L10  () String)
(assert (toLower sym387  L10 ))
(declare-fun L42  () String)
(assert (toLower sym264  L42 ))
(declare-fun L8  () String)
(assert (toLower sym489  L8 ))
(declare-fun L30  () String)
(assert (toLower sym150  L30 ))
(declare-fun L26  () String)
(assert (toLower sym479  L26 ))
(declare-fun L14  () String)
(assert (toLower sym254  L14 ))
(declare-fun L46  () String)
(assert (toLower sym413  L46 ))
(declare-fun L34  () String)
(assert (toLower sym225  L34 ))
(declare-fun L18  () String)
(assert (toLower sym313  L18 ))
(declare-fun L38  () String)
(assert (toLower sym185  L38 ))
(declare-fun L91  () String)
(assert (toLower sym205  L91 ))
(declare-fun L102  () String)
(assert (toLower sym433  L102 ))
(declare-fun L95  () String)
(assert (toLower sym571  L95 ))
(declare-fun L83  () String)
(assert (toLower sym279  L83 ))
(declare-fun L110  () String)
(assert (toLower sym469  L110 ))
(declare-fun L71  () String)
(assert (toLower sym629  L71 ))
(declare-fun L99  () String)
(assert (toLower sym423  L99 ))
(declare-fun L55  () String)
(assert (toLower sym533  L55 ))
(declare-fun L11  () String)
(assert (toLower "description"  L11 ))
(declare-fun L87  () String)
(assert (toLower sym749  L87 ))
(declare-fun L75  () String)
(assert (toLower sym289  L75 ))
(declare-fun L63  () String)
(assert (toLower sym509  L63 ))
(declare-fun L7  () String)
(assert (toLower "field"  L7 ))
(declare-fun L59  () String)
(assert (toLower sym659  L59 ))
(declare-fun L79  () String)
(assert (toLower sym377  L79 ))
(declare-fun L35  () String)
(assert (toLower "table"  L35 ))
(declare-fun L106  () String)
(assert (toLower sym615  L106 ))
(declare-fun L67  () String)
(assert (toLower sym649  L67 ))
(declare-fun L23  () String)
(assert (toLower "option"  L23 ))

(assert (str.in_re sym195 Alphabet))
(assert (str.in_re sym150 Alphabet))
(assert (str.in_re sym479 Alphabet))
(assert (str.in_re sym313 Alphabet))
(assert (str.in_re sym433 Alphabet))
(assert (str.in_re sym675 Alphabet))
(assert (str.in_re sym279 Alphabet))
(assert (str.in_re sym113 Alphabet))
(assert (str.in_re sym397 Alphabet))
(assert (str.in_re sym595 Alphabet))
(assert (str.in_re sym352 Alphabet))
(assert (str.in_re sym639 Alphabet))
(assert (str.in_re sym715 Alphabet))
(assert (str.in_re sym239 Alphabet))
(assert (str.in_re sym557 Alphabet))
(assert (str.in_re sym581 Alphabet))
(assert (str.in_re sym185 Alphabet))
(assert (str.in_re sym303 Alphabet))
(assert (str.in_re sym423 Alphabet))
(assert (str.in_re sym225 Alphabet))
(assert (str.in_re sym543 Alphabet))
(assert (str.in_re sym387 Alphabet))
(assert (str.in_re sym264 Alphabet))
(assert (str.in_re sym509 Alphabet))
(assert (str.in_re sym629 Alphabet))
(assert (str.in_re sym749 Alphabet))
(assert (str.in_re sym705 Alphabet))
(assert (str.in_re sym469 Alphabet))
(assert (str.in_re sym20 Alphabet))
(assert (str.in_re sym215 Alphabet))
(assert (str.in_re sym413 Alphabet))
(assert (str.in_re sym533 Alphabet))
(assert (str.in_re sym499 Alphabet))
(assert (str.in_re sym377 Alphabet))
(assert (str.in_re sym135 Alphabet))
(assert (str.in_re sym453 Alphabet))
(assert (str.in_re sym695 Alphabet))
(assert (str.in_re sym254 Alphabet))
(assert (str.in_re sym175 Alphabet))
(assert (str.in_re sym571 Alphabet))
(assert (str.in_re sym739 Alphabet))
(assert (str.in_re sym615 Alphabet))
(assert (str.in_re sym659 Alphabet))
(assert (str.in_re sym337 Alphabet))
(assert (str.in_re sym160 Alphabet))
(assert (str.in_re sym523 Alphabet))
(assert (str.in_re sym489 Alphabet))
(assert (str.in_re sym323 Alphabet))
(assert (str.in_re sym289 Alphabet))
(assert (str.in_re sym685 Alphabet))
(assert (str.in_re sym443 Alphabet))
(assert (str.in_re sym362 Alphabet))
(assert (str.in_re sym729 Alphabet))
(assert (str.in_re sym649 Alphabet))
(assert (str.in_re sym605 Alphabet))
(assert (str.in_re sym205 Alphabet))
(assert (= L0 L1 ))
(assert (not (= L2 L1 )))
(assert (= L4 L5 ))
(assert (= L6 L7 ))
(assert (not (= L8 L9 )))
(assert (not (= L10 L11 )))
(assert (= L12 L1 ))
(assert (not (= L14 L1 )))
(assert (not (= L16 L9 )))
(assert (not (= L18 L11 )))
(assert (= L20 L11 ))
(assert (= L22 L23 ))
(assert (not (= L24 L1 )))
(assert (not (= L26 L11 )))
(assert (= L28 L1 ))
(assert (not (= L30 L1 )))
(assert (not (= L32 L33 )))
(assert (= L34 L35 ))
(assert (not (= L36 L11 )))
(assert (not (= L38 L11 )))
(assert (= L40 L1 ))
(assert (= L42 L11 ))
(assert (not (= L44 L11 )))
(assert (not (= L46 L1 )))
(assert (not (= L48 L11 )))
(assert (not (= L50 L33 )))
(assert (= L52 "html" ))
(assert (= L53 L11 ))
(assert (not (= L55 L11 )))
(assert (not (= L57 L1 )))
(assert (= L59 L33 ))
(assert (= L61 L23 ))
(assert (= L63 L23 ))
(assert (not (= L65 L33 )))
(assert (not (= L67 L9 )))
(assert (not (= L69 L11 )))
(assert (not (= L71 L1 )))
(assert (= L73 L7 ))
(assert (= L75 L11 ))
(assert (= L77 L11 ))
(assert (not (= L79 L1 )))
(assert (not (= L81 L35 )))
(assert (not (= L83 L1 )))
(assert (not (= L85 L11 )))
(assert (not (= L87 L7 )))
(assert (not (= L89 L1 )))
(assert (not (= L91 L1 )))
(assert (not (= L93 L1 )))
(assert (not (= L95 L1 )))
(assert (not (= L97 L1 )))
(assert (not (= L99 L11 )))
(assert (not (= L52 "sql" )))
(assert (not (= L102 L9 )))
(assert (= L104 L9 ))
(assert (= L106 L9 ))
(assert (not (= L108 L1 )))
(assert (not (= L110 L1 )))
(check-sat)
(get-model)
(exit)
